unsat
(:cnf-encoding-aux-vars   73
 :eliminated-applications 4
 :eliminated-vars         96
 :max-memory              18.78
 :memory                  18.33
 :nlsat-conflicts         2
 :nlsat-decisions         3
 :nlsat-propagations      8
 :num-allocs              150020
 :rlimit-count            56121
 :time                    0.01
 :total-time              0.02)
